objective value:                                11261
t_x_1                                               1 	(obj:2)
t_x_2                                               1 	(obj:11)
t_x_3                                               1 	(obj:21)
t_x_8                                               1 	(obj:7)
t_x_9                                               1 	(obj:29)
t_x_10                                              1 	(obj:50)
t_x_12                                              1 	(obj:9)
t_x_16                                              1 	(obj:33)
t_x_18                                              1 	(obj:51)
t_x_29                                              1 	(obj:24)
t_x_30                                              1 	(obj:5)
t_x_33                                              1 	(obj:10)
t_x_35                                              1 	(obj:0)
t_x_37                                              1 	(obj:45)
t_x_40                                              1 	(obj:1)
t_x_42                                              1 	(obj:34)
t_x_44                                              1 	(obj:19)
t_x_45                                              1 	(obj:12)
t_x_46                                              1 	(obj:3)
t_x_49                                              1 	(obj:22)
t_x_50                                              1 	(obj:7)
t_x_52                                              1 	(obj:22)
t_x_53                                              1 	(obj:42)
t_x_54                                              1 	(obj:9)
t_x_55                                              1 	(obj:30)
t_x_56                                              1 	(obj:22)
t_x_58                                              1 	(obj:13)
t_x_67                                              1 	(obj:3)
t_x_68                                              1 	(obj:0)
t_x_70                                              1 	(obj:42)
t_x_71                                              1 	(obj:88)
t_x_72                                              1 	(obj:30)
t_x_77                                              1 	(obj:11)
t_x_79                                              1 	(obj:40)
t_x_80                                              1 	(obj:6)
t_x_86                                              1 	(obj:29)
t_x_88                                              1 	(obj:51)
t_x_89                                              1 	(obj:1)
t_x_90                                              1 	(obj:17)
t_x_92                                              1 	(obj:67)
t_x_93                                              1 	(obj:8)
t_x_96                                              1 	(obj:24)
t_x_99                                              1 	(obj:29)
t_x_102                                             1 	(obj:28)
t_x_103                                             1 	(obj:42)
t_x_107                                             1 	(obj:39)
t_x_111                                             1 	(obj:39)
t_x_113                                             1 	(obj:18)
t_x_122                                             1 	(obj:49)
t_x_126                                             1 	(obj:11)
t_x_134                                             1 	(obj:6)
t_x_138                                             1 	(obj:32)
t_x_140                                             1 	(obj:16)
t_x_146                                             1 	(obj:12)
t_x_147                                             1 	(obj:15)
t_x_149                                             1 	(obj:21)
t_x_154                                             1 	(obj:16)
t_x_157                                             1 	(obj:47)
t_x_163                                             1 	(obj:2)
t_x_164                                             1 	(obj:21)
t_x_166                                             1 	(obj:7)
t_x_168                                             1 	(obj:28)
t_x_169                                             1 	(obj:1)
t_x_180                                             1 	(obj:59)
t_x_183                                             1 	(obj:17)
t_x_184                                             1 	(obj:27)
t_x_192                                             1 	(obj:8)
t_x_202                                             1 	(obj:0)
t_x_205                                             1 	(obj:10)
t_x_209                                             1 	(obj:10)
t_x_210                                             1 	(obj:34)
t_x_211                                             1 	(obj:22)
t_x_212                                             1 	(obj:23)
t_x_217                                             1 	(obj:25)
t_x_218                                             1 	(obj:6)
t_x_220                                             1 	(obj:51)
t_x_221                                             1 	(obj:15)
t_x_225                                             1 	(obj:40)
t_x_226                                             1 	(obj:6)
t_x_228                                             1 	(obj:5)
t_x_229                                             1 	(obj:43)
t_x_232                                             1 	(obj:18)
t_x_234                                             1 	(obj:23)
t_x_235                                             1 	(obj:7)
t_x_240                                             1 	(obj:10)
t_x_242                                             1 	(obj:13)
t_x_245                                             1 	(obj:6)
t_x_246                                             1 	(obj:20)
t_x_253                                             1 	(obj:0)
t_x_254                                             1 	(obj:21)
t_x_257                                             1 	(obj:32)
t_x_259                                             1 	(obj:18)
t_x_262                                             1 	(obj:7)
t_x_268                                             1 	(obj:12)
t_x_269                                             1 	(obj:5)
t_x_274                                             1 	(obj:2)
t_x_275                                             1 	(obj:12)
t_x_277                                             1 	(obj:20)
t_x_278                                             1 	(obj:0)
t_x_282                                             1 	(obj:22)
t_x_291                                             1 	(obj:7)
t_x_293                                             1 	(obj:1)
t_x_299                                             1 	(obj:2)
t_x_300                                             1 	(obj:17)
t_x_301                                             1 	(obj:2)
t_x_302                                             1 	(obj:6)
t_x_308                                             1 	(obj:30)
t_x_312                                             1 	(obj:35)
t_x_315                                             1 	(obj:37)
t_x_319                                             1 	(obj:4)
t_x_323                                             1 	(obj:25)
t_x_324                                             1 	(obj:23)
t_x_327                                             1 	(obj:18)
t_x_329                                             1 	(obj:17)
t_x_331                                             1 	(obj:14)
t_x_332                                             1 	(obj:11)
t_x_345                                             1 	(obj:2)
t_x_347                                             1 	(obj:10)
t_x_348                                             1 	(obj:40)
t_x_351                                             1 	(obj:3)
t_x_353                                             1 	(obj:21)
t_x_355                                             1 	(obj:35)
t_x_364                                             1 	(obj:8)
t_x_368                                             1 	(obj:62)
t_x_371                                             1 	(obj:7)
t_x_375                                             1 	(obj:40)
t_x_378                                             1 	(obj:1)
t_x_384                                             1 	(obj:13)
t_x_394                                             1 	(obj:3)
t_x_398                                             1 	(obj:47)
t_x_401                                             1 	(obj:15)
t_x_403                                             1 	(obj:4)
t_x_412                                             1 	(obj:12)
t_x_416                                             1 	(obj:11)
t_x_423                                             1 	(obj:44)
t_x_424                                             1 	(obj:7)
t_x_425                                             1 	(obj:5)
t_x_428                                             1 	(obj:23)
t_x_432                                             1 	(obj:15)
t_x_439                                             1 	(obj:11)
t_x_441                                             1 	(obj:4)
t_x_446                                             1 	(obj:37)
t_x_450                                             1 	(obj:22)
t_x_454                                             1 	(obj:0)
t_x_455                                             1 	(obj:9)
t_x_462                                             1 	(obj:18)
t_x_464                                             1 	(obj:1)
t_x_468                                             1 	(obj:21)
t_x_469                                             1 	(obj:38)
t_x_470                                             1 	(obj:25)
t_x_474                                             1 	(obj:12)
t_x_475                                             1 	(obj:58)
t_x_479                                             1 	(obj:27)
t_x_482                                             1 	(obj:16)
t_x_485                                             1 	(obj:15)
t_x_492                                             1 	(obj:23)
t_x_498                                             1 	(obj:34)
t_x_502                                             1 	(obj:18)
t_x_504                                             1 	(obj:0)
t_x_510                                             1 	(obj:3)
t_x_519                                             1 	(obj:8)
t_x_526                                             1 	(obj:20)
t_x_527                                             1 	(obj:8)
t_x_528                                             1 	(obj:29)
t_x_530                                             1 	(obj:64)
t_x_531                                             1 	(obj:56)
t_x_534                                             1 	(obj:21)
t_x_535                                             1 	(obj:27)
t_x_538                                             1 	(obj:24)
t_x_540                                             1 	(obj:23)
t_x_545                                             1 	(obj:31)
t_x_549                                             1 	(obj:8)
t_x_551                                             1 	(obj:3)
t_x_553                                             1 	(obj:4)
t_x_554                                             1 	(obj:3)
t_x_555                                             1 	(obj:11)
t_x_561                                             1 	(obj:23)
t_x_562                                             1 	(obj:53)
t_x_564                                             1 	(obj:37)
t_x_565                                             1 	(obj:8)
t_x_566                                             1 	(obj:22)
t_x_572                                             1 	(obj:49)
t_x_578                                             1 	(obj:15)
t_x_580                                             1 	(obj:18)
t_x_592                                             1 	(obj:0)
t_x_594                                             1 	(obj:19)
t_x_598                                             1 	(obj:19)
t_x_601                                             1 	(obj:11)
t_x_603                                             1 	(obj:21)
t_x_606                                             1 	(obj:24)
t_x_609                                             1 	(obj:12)
t_x_610                                             1 	(obj:7)
t_x_612                                             1 	(obj:0)
t_x_614                                             1 	(obj:3)
t_x_615                                             1 	(obj:32)
t_x_618                                             1 	(obj:20)
t_x_619                                             1 	(obj:7)
t_x_620                                             1 	(obj:8)
t_x_626                                             1 	(obj:36)
t_x_628                                             1 	(obj:7)
t_x_631                                             1 	(obj:22)
t_x_633                                             1 	(obj:72)
t_x_645                                             1 	(obj:26)
t_x_655                                             1 	(obj:23)
t_x_656                                             1 	(obj:20)
t_x_659                                             1 	(obj:6)
t_x_663                                             1 	(obj:25)
t_x_664                                             1 	(obj:2)
t_x_665                                             1 	(obj:50)
t_x_667                                             1 	(obj:27)
t_x_669                                             1 	(obj:6)
t_x_673                                             1 	(obj:13)
t_x_674                                             1 	(obj:41)
t_x_676                                             1 	(obj:20)
t_x_678                                             1 	(obj:26)
t_x_681                                             1 	(obj:5)
t_x_682                                             1 	(obj:33)
t_x_687                                             1 	(obj:23)
t_x_689                                             1 	(obj:2)
t_x_690                                             1 	(obj:3)
t_x_692                                             1 	(obj:8)
t_x_693                                             1 	(obj:24)
t_x_694                                             1 	(obj:13)
t_x_698                                             1 	(obj:3)
t_x_700                                             1 	(obj:24)
t_x_702                                             1 	(obj:23)
t_x_705                                             1 	(obj:3)
t_x_706                                             1 	(obj:16)
t_x_716                                             1 	(obj:33)
t_x_720                                             1 	(obj:35)
t_x_721                                             1 	(obj:12)
t_x_724                                             1 	(obj:8)
t_x_727                                             1 	(obj:4)
t_x_729                                             1 	(obj:40)
t_x_734                                             1 	(obj:15)
t_x_735                                             1 	(obj:5)
t_x_738                                             1 	(obj:8)
t_x_741                                             1 	(obj:25)
t_x_744                                             1 	(obj:53)
t_x_746                                             1 	(obj:4)
t_x_748                                             1 	(obj:2)
t_x_749                                             1 	(obj:11)
t_x_752                                             1 	(obj:23)
t_x_754                                             1 	(obj:52)
t_x_757                                             1 	(obj:50)
t_x_760                                             1 	(obj:14)
t_x_763                                             1 	(obj:6)
t_x_765                                             1 	(obj:14)
t_x_771                                             1 	(obj:16)
t_x_777                                             1 	(obj:33)
t_x_782                                             1 	(obj:18)
t_x_785                                             1 	(obj:18)
t_x_787                                             1 	(obj:31)
t_x_788                                             1 	(obj:4)
t_x_791                                             1 	(obj:17)
t_x_792                                             1 	(obj:2)
t_x_795                                             1 	(obj:7)
t_x_796                                             1 	(obj:26)
t_x_798                                             1 	(obj:38)
t_x_802                                             1 	(obj:19)
t_x_805                                             1 	(obj:65)
t_x_807                                             1 	(obj:23)
t_x_808                                             1 	(obj:18)
t_x_809                                             1 	(obj:5)
t_x_819                                             1 	(obj:6)
t_x_822                                             1 	(obj:0)
t_x_824                                             1 	(obj:11)
t_x_826                                             1 	(obj:24)
t_x_827                                             1 	(obj:10)
t_x_829                                             1 	(obj:43)
t_x_830                                             1 	(obj:4)
t_x_832                                             1 	(obj:17)
t_x_842                                             1 	(obj:12)
t_x_844                                             1 	(obj:1)
t_x_846                                             1 	(obj:54)
t_x_859                                             1 	(obj:14)
t_x_862                                             1 	(obj:1)
t_x_864                                             1 	(obj:15)
t_x_870                                             1 	(obj:8)
t_x_872                                             1 	(obj:23)
t_x_873                                             1 	(obj:17)
t_x_879                                             1 	(obj:8)
t_x_886                                             1 	(obj:29)
t_x_888                                             1 	(obj:19)
t_x_890                                             1 	(obj:6)
t_x_893                                             1 	(obj:6)
t_x_894                                             1 	(obj:3)
t_x_897                                             1 	(obj:54)
t_x_901                                             1 	(obj:31)
t_x_902                                             1 	(obj:7)
t_x_905                                             1 	(obj:8)
t_x_906                                             1 	(obj:11)
t_x_909                                             1 	(obj:10)
t_x_910                                             1 	(obj:14)
t_x_912                                             1 	(obj:7)
t_x_914                                             1 	(obj:1)
t_x_917                                             1 	(obj:13)
t_x_924                                             1 	(obj:14)
t_x_929                                             1 	(obj:10)
t_x_935                                             1 	(obj:40)
t_x_937                                             1 	(obj:0)
t_x_938                                             1 	(obj:21)
t_x_939                                             1 	(obj:13)
t_x_945                                             1 	(obj:50)
t_x_947                                             1 	(obj:9)
t_x_948                                             1 	(obj:15)
t_x_956                                             1 	(obj:21)
t_x_958                                             1 	(obj:22)
t_x_962                                             1 	(obj:18)
t_x_963                                             1 	(obj:56)
t_x_964                                             1 	(obj:1)
t_x_966                                             1 	(obj:11)
t_x_968                                             1 	(obj:3)
t_x_970                                             1 	(obj:18)
t_x_971                                             1 	(obj:28)
t_x_975                                             1 	(obj:8)
t_x_980                                             1 	(obj:9)
t_x_985                                             1 	(obj:26)
t_x_992                                             1 	(obj:15)
t_x_1001                                            1 	(obj:17)
t_x_1008                                            1 	(obj:40)
t_x_1009                                            1 	(obj:3)
t_x_1011                                            1 	(obj:24)
t_x_1015                                            1 	(obj:14)
t_x_1016                                            1 	(obj:13)
t_x_1021                                            1 	(obj:9)
t_x_1026                                            1 	(obj:9)
t_x_1038                                            1 	(obj:4)
t_x_1041                                            1 	(obj:18)
t_x_1042                                            1 	(obj:28)
t_x_1043                                            1 	(obj:52)
t_x_1047                                            1 	(obj:17)
t_x_1051                                            1 	(obj:33)
t_x_1056                                            1 	(obj:2)
t_x_1057                                            1 	(obj:54)
t_x_1062                                            1 	(obj:45)
t_x_1069                                            1 	(obj:30)
t_x_1073                                            1 	(obj:30)
t_x_1075                                            1 	(obj:25)
t_x_1081                                            1 	(obj:13)
t_x_1082                                            1 	(obj:24)
t_x_1084                                            1 	(obj:18)
t_x_1085                                            1 	(obj:37)
t_x_1086                                            1 	(obj:19)
t_x_1092                                            1 	(obj:17)
t_x_1094                                            1 	(obj:4)
t_x_1098                                            1 	(obj:14)
t_x_1101                                            1 	(obj:8)
t_x_1108                                            1 	(obj:9)
t_x_1110                                            1 	(obj:5)
t_x_1111                                            1 	(obj:47)
t_x_1115                                            1 	(obj:1)
t_x_1117                                            1 	(obj:33)
t_x_1123                                            1 	(obj:22)
t_x_1127                                            1 	(obj:2)
t_x_1128                                            1 	(obj:14)
t_x_1130                                            1 	(obj:62)
t_x_1131                                            1 	(obj:4)
t_x_1134                                            1 	(obj:1)
t_x_1139                                            1 	(obj:11)
t_x_1140                                            1 	(obj:33)
t_x_1141                                            1 	(obj:3)
t_x_1142                                            1 	(obj:4)
t_x_1144                                            1 	(obj:6)
t_x_1148                                            1 	(obj:10)
t_x_1150                                            1 	(obj:4)
t_x_1154                                            1 	(obj:9)
t_x_1160                                            1 	(obj:10)
t_x_1168                                            1 	(obj:14)
t_x_1170                                            1 	(obj:20)
t_x_1174                                            1 	(obj:33)
t_x_1175                                            1 	(obj:15)
t_x_1178                                            1 	(obj:19)
t_x_1184                                            1 	(obj:2)
t_x_1190                                            1 	(obj:15)
t_x_1193                                            1 	(obj:9)
t_x_1194                                            1 	(obj:7)
t_x_1205                                            1 	(obj:7)
t_x_1208                                            1 	(obj:0)
t_x_1210                                            1 	(obj:6)
t_x_1213                                            1 	(obj:8)
t_x_1216                                            1 	(obj:29)
t_x_1221                                            1 	(obj:29)
t_x_1224                                            1 	(obj:8)
t_x_1229                                            1 	(obj:23)
t_x_1236                                            1 	(obj:8)
t_x_1238                                            1 	(obj:0)
t_x_1241                                            1 	(obj:48)
t_x_1242                                            1 	(obj:19)
t_x_1246                                            1 	(obj:27)
t_x_1248                                            1 	(obj:30)
t_x_1253                                            1 	(obj:49)
t_x_1254                                            1 	(obj:10)
t_x_1256                                            1 	(obj:2)
t_x_1263                                            1 	(obj:6)
t_x_1264                                            1 	(obj:11)
t_x_1270                                            1 	(obj:5)
t_x_1272                                            1 	(obj:1)
t_x_1275                                            1 	(obj:2)
t_x_1277                                            1 	(obj:2)
t_x_1278                                            1 	(obj:14)
t_x_1284                                            1 	(obj:27)
t_x_1288                                            1 	(obj:16)
t_x_1295                                            1 	(obj:19)
t_x_1298                                            1 	(obj:28)
t_x_1301                                            1 	(obj:17)
t_x_1306                                            1 	(obj:19)
t_x_1309                                            1 	(obj:33)
t_x_1314                                            1 	(obj:11)
t_x_1316                                            1 	(obj:9)
t_x_1324                                            1 	(obj:20)
t_x_1330                                            1 	(obj:16)
t_x_1332                                            1 	(obj:24)
t_x_1336                                            1 	(obj:0)
t_x_1338                                            1 	(obj:46)
t_x_1341                                            1 	(obj:7)
t_x_1347                                            1 	(obj:1)
t_x_1360                                            1 	(obj:12)
t_x_1363                                            1 	(obj:7)
t_x_1365                                            1 	(obj:18)
t_x_1366                                            1 	(obj:12)
t_x_1373                                            1 	(obj:14)
t_x_1376                                            1 	(obj:88)
t_x_1380                                            1 	(obj:7)
t_x_1387                                            1 	(obj:44)
t_x_1389                                            1 	(obj:24)
t_x_1392                                            1 	(obj:14)
t_x_1396                                            1 	(obj:32)
t_x_1399                                            1 	(obj:5)
t_x_1409                                            1 	(obj:4)
t_x_1411                                            1 	(obj:24)
t_x_1412                                            1 	(obj:5)
t_x_1415                                            1 	(obj:19)
t_x_1429                                            1 	(obj:17)
t_x_1432                                            1 	(obj:23)
t_x_1439                                            1 	(obj:6)
t_x_1444                                            1 	(obj:35)
t_x_1445                                            1 	(obj:6)
t_x_1446                                            1 	(obj:36)
t_x_1449                                            1 	(obj:3)
t_x_1450                                            1 	(obj:15)
t_x_1457                                            1 	(obj:14)
t_x_1458                                            1 	(obj:32)
t_x_1459                                            1 	(obj:7)
t_x_1469                                            1 	(obj:11)
t_x_1470                                            1 	(obj:33)
t_x_1479                                            1 	(obj:8)
t_x_1480                                            1 	(obj:15)
t_x_1482                                            1 	(obj:7)
t_x_1485                                            1 	(obj:30)
t_x_1486                                            1 	(obj:12)
t_x_1491                                            1 	(obj:26)
t_x_1492                                            1 	(obj:25)
t_x_1498                                            1 	(obj:39)
t_x_1501                                            1 	(obj:29)
t_x_1503                                            1 	(obj:21)
t_x_1504                                            1 	(obj:62)
t_x_1512                                            1 	(obj:35)
t_x_1514                                            1 	(obj:1)
t_x_1516                                            1 	(obj:25)
t_x_1524                                            1 	(obj:32)
t_x_1530                                            1 	(obj:2)
t_x_1532                                            1 	(obj:2)
t_x_1533                                            1 	(obj:21)
t_x_1534                                            1 	(obj:16)
t_x_1535                                            1 	(obj:1)
t_x_1543                                            1 	(obj:13)
t_x_1548                                            1 	(obj:35)
t_x_1551                                            1 	(obj:69)
t_x_1553                                            1 	(obj:11)
t_x_1555                                            1 	(obj:18)
t_x_1558                                            1 	(obj:20)
t_x_1561                                            1 	(obj:35)
t_x_1562                                            1 	(obj:13)
t_x_1564                                            1 	(obj:2)
t_x_1570                                            1 	(obj:6)
t_x_1571                                            1 	(obj:47)
t_x_1572                                            1 	(obj:35)
t_x_1579                                            1 	(obj:39)
t_x_1581                                            1 	(obj:18)
t_x_1591                                            1 	(obj:22)
t_x_1593                                            1 	(obj:7)
t_x_1595                                            1 	(obj:13)
t_x_1599                                            1 	(obj:10)
t_x_1601                                            1 	(obj:10)
t_x_1608                                            1 	(obj:59)
t_x_1610                                            1 	(obj:14)
t_x_1611                                            1 	(obj:18)
t_x_1618                                            1 	(obj:17)
t_x_1622                                            1 	(obj:0)
t_x_1624                                            1 	(obj:6)
t_x_1630                                            1 	(obj:5)
t_x_1638                                            1 	(obj:26)
t_x_1640                                            1 	(obj:34)
t_x_1641                                            1 	(obj:42)
t_x_1642                                            1 	(obj:30)
t_x_1646                                            1 	(obj:0)
t_x_1647                                            1 	(obj:17)
t_x_1648                                            1 	(obj:1)
t_x_1650                                            1 	(obj:45)
t_x_1652                                            1 	(obj:0)
t_x_1655                                            1 	(obj:11)
t_x_1658                                            1 	(obj:35)
t_x_1659                                            1 	(obj:16)
t_x_1662                                            1 	(obj:13)
t_x_1664                                            1 	(obj:14)
t_x_1668                                            1 	(obj:37)
t_x_1686                                            1 	(obj:4)
t_x_1689                                            1 	(obj:2)
t_x_1691                                            1 	(obj:1)
t_x_1693                                            1 	(obj:6)
t_x_1695                                            1 	(obj:16)
t_x_1697                                            1 	(obj:9)
t_x_1699                                            1 	(obj:8)
t_x_1703                                            1 	(obj:66)
t_x_1705                                            1 	(obj:5)
t_x_1711                                            1 	(obj:8)
t_x_1723                                            1 	(obj:20)
t_x_1726                                            1 	(obj:3)
t_x_1730                                            1 	(obj:30)
t_x_1732                                            1 	(obj:40)
t_x_1742                                            1 	(obj:1)
t_x_1750                                            1 	(obj:63)
t_x_1751                                            1 	(obj:24)
t_x_1756                                            1 	(obj:0)
t_x_1761                                            1 	(obj:8)
t_x_1762                                            1 	(obj:31)
t_x_1764                                            1 	(obj:9)
t_x_1765                                            1 	(obj:14)
t_x_1768                                            1 	(obj:26)
t_x_1772                                            1 	(obj:6)
t_x_1774                                            1 	(obj:36)
t_x_1777                                            1 	(obj:5)
t_x_1780                                            1 	(obj:21)
t_x_1781                                            1 	(obj:23)
t_x_1798                                            1 	(obj:64)
t_x_1799                                            1 	(obj:24)
t_x_1802                                            1 	(obj:20)
t_x_1810                                            1 	(obj:34)
t_x_1813                                            1 	(obj:1)
t_x_1818                                            1 	(obj:21)
t_x_1819                                            1 	(obj:2)
t_x_1825                                            1 	(obj:40)
t_x_1826                                            1 	(obj:13)
t_x_1829                                            1 	(obj:9)
t_x_1830                                            1 	(obj:0)
t_x_1831                                            1 	(obj:5)
t_x_1834                                            1 	(obj:12)
t_x_1836                                            1 	(obj:66)
t_x_1839                                            1 	(obj:1)
t_x_1841                                            1 	(obj:25)
t_x_1842                                            1 	(obj:20)
t_x_1844                                            1 	(obj:23)
t_x_1845                                            1 	(obj:31)
t_x_1846                                            1 	(obj:23)
t_x_1847                                            1 	(obj:24)
t_x_1852                                            1 	(obj:11)
t_x_1857                                            1 	(obj:2)
t_x_1858                                            1 	(obj:12)
t_x_1862                                            1 	(obj:16)
t_x_1868                                            1 	(obj:57)
t_x_1870                                            1 	(obj:14)
t_x_1871                                            1 	(obj:4)
t_x_1872                                            1 	(obj:30)
t_x_1875                                            1 	(obj:15)
t_x_1876                                            1 	(obj:8)
t_x_1879                                            1 	(obj:10)
t_x_1880                                            1 	(obj:13)
t_x_1884                                            1 	(obj:35)
t_x_1885                                            1 	(obj:1)
t_x_1888                                            1 	(obj:19)
t_x_1889                                            1 	(obj:9)
t_x_1902                                            1 	(obj:2)
t_x_1906                                            1 	(obj:31)
t_x_1911                                            1 	(obj:1)
t_x_1912                                            1 	(obj:2)
t_x_1914                                            1 	(obj:10)
t_x_1921                                            1 	(obj:17)
t_x_1925                                            1 	(obj:14)
t_x_1926                                            1 	(obj:9)
t_x_1932                                            1 	(obj:7)
t_x_1939                                            1 	(obj:2)
t_x_1940                                            1 	(obj:50)
t_x_1941                                            1 	(obj:0)
t_x_1946                                            1 	(obj:11)
t_x_1947                                            1 	(obj:39)
t_x_1951                                            1 	(obj:8)
t_x_1956                                            1 	(obj:11)
t_x_1957                                            1 	(obj:50)
t_x_1968                                            1 	(obj:19)
t_x_1971                                            1 	(obj:24)
t_x_1977                                            1 	(obj:3)
t_x_1982                                            1 	(obj:1)
t_x_1988                                            1 	(obj:24)
t_x_1992                                            1 	(obj:7)
t_x_1994                                            1 	(obj:27)
t_x_1996                                            1 	(obj:10)
t_x_1997                                            1 	(obj:16)
